p edge 150 1118
e 1 7
e 1 12
e 1 14
e 1 18
e 1 19
e 1 24
e 1 49
e 1 61
e 1 66
e 1 78
e 1 96
e 1 102
e 1 117
e 1 118
e 1 119
e 1 144
e 1 145
e 1 146
e 2 11
e 2 22
e 2 46
e 2 51
e 2 56
e 2 59
e 2 75
e 2 90
e 2 103
e 2 125
e 2 128
e 2 131
e 2 134
e 2 140
e 3 14
e 3 15
e 3 19
e 3 23
e 3 34
e 3 48
e 3 55
e 3 74
e 3 96
e 3 131
e 3 135
e 3 139
e 3 140
e 3 144
e 3 148
e 4 17
e 4 20
e 4 33
e 4 41
e 4 54
e 4 60
e 4 67
e 4 104
e 4 117
e 4 134
e 4 141
e 5 8
e 5 10
e 5 15
e 5 16
e 5 20
e 5 27
e 5 41
e 5 46
e 5 51
e 5 57
e 5 63
e 5 68
e 5 69
e 5 95
e 5 114
e 5 116
e 5 127
e 5 142
e 5 145
e 6 7
e 6 14
e 6 26
e 6 35
e 6 42
e 6 58
e 6 59
e 6 67
e 6 71
e 6 106
e 6 124
e 6 134
e 6 142
e 6 146
e 6 149
e 6 150
e 7 50
e 7 70
e 7 75
e 7 82
e 7 83
e 7 106
e 7 108
e 7 110
e 7 118
e 7 131
e 7 136
e 8 19
e 8 21
e 8 23
e 8 44
e 8 61
e 8 68
e 8 69
e 8 76
e 8 130
e 8 132
e 8 144
e 8 150
e 9 27
e 9 29
e 9 36
e 9 47
e 9 48
e 9 66
e 9 76
e 9 77
e 9 81
e 9 86
e 9 121
e 9 140
e 10 20
e 10 26
e 10 27
e 10 31
e 10 56
e 10 75
e 10 82
e 10 93
e 10 94
e 10 99
e 10 105
e 10 122
e 10 124
e 10 136
e 10 138
e 10 141
e 10 149
e 11 23
e 11 25
e 11 33
e 11 40
e 11 44
e 11 59
e 11 72
e 11 76
e 11 82
e 11 91
e 11 93
e 11 123
e 11 141
e 11 147
e 12 17
e 12 27
e 12 50
e 12 54
e 12 58
e 12 60
e 12 74
e 12 78
e 12 82
e 12 107
e 12 120
e 12 129
e 12 145
e 13 17
e 13 23
e 13 28
e 13 40
e 13 50
e 13 55
e 13 61
e 13 97
e 13 100
e 13 108
e 13 112
e 13 122
e 13 130
e 13 143
e 13 145
e 14 15
e 14 16
e 14 18
e 14 19
e 14 26
e 14 28
e 14 35
e 14 36
e 14 41
e 14 48
e 14 72
e 14 84
e 14 85
e 14 135
e 15 20
e 15 43
e 15 44
e 15 60
e 15 66
e 15 75
e 15 81
e 15 83
e 15 84
e 15 106
e 15 109
e 15 110
e 15 111
e 15 114
e 15 142
e 15 143
e 16 17
e 16 22
e 16 28
e 16 29
e 16 32
e 16 79
e 16 80
e 16 91
e 16 93
e 16 102
e 16 106
e 16 120
e 16 129
e 16 134
e 16 137
e 17 20
e 17 21
e 17 25
e 17 26
e 17 44
e 17 54
e 17 55
e 17 63
e 17 68
e 17 69
e 17 79
e 17 94
e 17 96
e 17 99
e 17 123
e 17 127
e 17 128
e 17 137
e 18 24
e 18 29
e 18 31
e 18 41
e 18 46
e 18 51
e 18 52
e 18 66
e 18 67
e 18 68
e 18 76
e 18 84
e 18 102
e 18 137
e 18 139
e 18 140
e 18 143
e 18 150
e 19 21
e 19 30
e 19 40
e 19 49
e 19 88
e 19 93
e 19 112
e 19 118
e 19 121
e 19 137
e 19 139
e 19 146
e 20 27
e 20 40
e 20 48
e 20 57
e 20 64
e 20 74
e 20 76
e 20 77
e 20 94
e 20 103
e 20 123
e 21 26
e 21 32
e 21 40
e 21 47
e 21 49
e 21 57
e 21 59
e 21 67
e 21 88
e 21 97
e 21 122
e 21 134
e 21 142
e 21 149
e 21 150
e 22 39
e 22 42
e 22 43
e 22 51
e 22 67
e 22 73
e 22 92
e 22 105
e 22 106
e 22 120
e 22 135
e 22 136
e 22 147
e 23 43
e 23 44
e 23 48
e 23 52
e 23 55
e 23 58
e 23 60
e 23 86
e 23 93
e 23 94
e 23 144
e 24 25
e 24 26
e 24 30
e 24 42
e 24 45
e 24 56
e 24 59
e 24 65
e 24 68
e 24 70
e 24 77
e 24 80
e 24 101
e 24 104
e 24 129
e 25 44
e 25 69
e 25 71
e 25 78
e 25 79
e 25 81
e 25 91
e 25 96
e 25 124
e 25 130
e 25 139
e 25 141
e 25 147
e 25 149
e 26 34
e 26 36
e 26 72
e 26 78
e 26 86
e 26 87
e 26 91
e 26 98
e 26 113
e 26 114
e 26 128
e 26 129
e 26 131
e 26 137
e 26 138
e 26 139
e 26 140
e 26 149
e 27 30
e 27 40
e 27 43
e 27 53
e 27 62
e 27 65
e 27 73
e 27 95
e 27 102
e 27 109
e 27 130
e 27 134
e 27 135
e 27 138
e 27 143
e 27 149
e 28 29
e 28 30
e 28 38
e 28 45
e 28 70
e 28 74
e 28 78
e 28 79
e 28 80
e 28 82
e 28 97
e 28 105
e 28 112
e 28 118
e 28 121
e 28 146
e 29 41
e 29 43
e 29 52
e 29 75
e 29 95
e 29 115
e 29 124
e 29 127
e 29 143
e 29 146
e 30 47
e 30 57
e 30 61
e 30 74
e 30 92
e 30 102
e 30 109
e 30 115
e 30 116
e 30 133
e 30 135
e 30 137
e 30 149
e 31 53
e 31 57
e 31 85
e 31 86
e 31 103
e 31 106
e 31 117
e 31 123
e 31 125
e 31 137
e 31 147
e 32 35
e 32 66
e 32 67
e 32 85
e 32 99
e 32 107
e 32 137
e 32 150
e 33 40
e 33 41
e 33 42
e 33 47
e 33 55
e 33 77
e 33 90
e 33 102
e 33 118
e 33 127
e 33 129
e 33 137
e 33 147
e 34 36
e 34 50
e 34 67
e 34 70
e 34 71
e 34 72
e 34 91
e 34 102
e 34 105
e 34 107
e 34 109
e 34 125
e 34 135
e 34 142
e 35 41
e 35 42
e 35 48
e 35 59
e 35 65
e 35 66
e 35 67
e 35 70
e 35 81
e 35 90
e 35 95
e 35 100
e 35 101
e 35 105
e 35 120
e 35 133
e 35 136
e 36 37
e 36 52
e 36 60
e 36 78
e 36 87
e 36 97
e 36 121
e 36 122
e 36 141
e 37 65
e 37 70
e 37 101
e 37 110
e 37 147
e 38 49
e 38 76
e 38 81
e 38 106
e 38 112
e 38 113
e 38 126
e 38 135
e 38 136
e 38 140
e 39 40
e 39 54
e 39 61
e 39 84
e 39 88
e 39 99
e 39 112
e 39 115
e 39 116
e 40 52
e 40 58
e 40 65
e 40 79
e 40 80
e 40 91
e 40 123
e 40 143
e 41 48
e 41 66
e 41 71
e 41 107
e 41 126
e 41 136
e 41 145
e 42 44
e 42 51
e 42 52
e 42 65
e 42 72
e 42 75
e 42 80
e 42 85
e 42 93
e 42 97
e 42 100
e 42 128
e 42 134
e 42 140
e 43 44
e 43 64
e 43 77
e 43 82
e 43 84
e 43 85
e 43 104
e 43 112
e 43 115
e 43 122
e 43 140
e 44 56
e 44 57
e 44 58
e 44 59
e 44 60
e 44 65
e 44 76
e 44 101
e 44 117
e 44 119
e 44 137
e 44 138
e 45 56
e 45 59
e 45 65
e 45 68
e 45 73
e 45 80
e 45 88
e 45 105
e 45 120
e 45 122
e 46 49
e 46 58
e 46 59
e 46 61
e 46 65
e 46 70
e 46 80
e 46 106
e 46 111
e 46 131
e 46 136
e 46 143
e 46 149
e 47 52
e 47 57
e 47 111
e 47 115
e 47 117
e 47 130
e 47 138
e 47 140
e 47 147
e 48 62
e 48 69
e 48 81
e 48 84
e 48 101
e 48 107
e 48 112
e 48 114
e 48 119
e 48 124
e 48 129
e 48 142
e 48 147
e 49 76
e 49 79
e 49 82
e 49 84
e 49 115
e 49 120
e 49 132
e 49 136
e 49 146
e 49 148
e 50 57
e 50 67
e 50 84
e 50 85
e 50 102
e 50 104
e 50 126
e 50 145
e 50 146
e 50 148
e 51 53
e 51 59
e 51 73
e 51 78
e 51 83
e 51 87
e 51 103
e 51 110
e 51 132
e 51 135
e 51 139
e 52 64
e 52 65
e 52 82
e 52 87
e 52 94
e 52 101
e 52 108
e 52 132
e 52 133
e 52 138
e 52 145
e 53 62
e 53 70
e 53 88
e 53 96
e 53 109
e 53 112
e 53 114
e 53 127
e 53 128
e 53 146
e 54 64
e 54 72
e 54 73
e 54 78
e 54 79
e 54 83
e 54 89
e 54 93
e 54 100
e 54 104
e 54 123
e 54 144
e 55 57
e 55 68
e 55 70
e 55 73
e 55 76
e 55 89
e 55 125
e 56 58
e 56 76
e 56 80
e 56 81
e 56 93
e 56 108
e 56 118
e 56 120
e 56 125
e 56 126
e 57 73
e 57 83
e 57 110
e 57 123
e 58 65
e 58 67
e 58 75
e 58 77
e 58 82
e 58 83
e 58 91
e 58 100
e 58 104
e 58 111
e 58 113
e 58 115
e 58 123
e 58 125
e 58 126
e 58 129
e 58 142
e 59 64
e 59 73
e 59 83
e 59 91
e 59 93
e 59 98
e 60 64
e 60 72
e 60 90
e 60 93
e 60 110
e 60 118
e 60 119
e 60 127
e 60 130
e 60 132
e 60 142
e 60 145
e 60 147
e 61 72
e 61 75
e 61 78
e 61 86
e 61 108
e 61 109
e 61 112
e 61 114
e 61 117
e 61 118
e 61 125
e 61 126
e 61 133
e 61 134
e 61 138
e 61 139
e 61 148
e 62 80
e 62 85
e 62 92
e 62 115
e 62 122
e 62 128
e 62 131
e 62 141
e 63 64
e 63 65
e 63 67
e 63 74
e 63 75
e 63 121
e 63 128
e 63 130
e 63 131
e 63 134
e 64 84
e 64 85
e 64 87
e 64 97
e 64 103
e 64 105
e 64 118
e 64 131
e 64 136
e 64 150
e 65 66
e 65 69
e 65 88
e 65 89
e 65 93
e 65 106
e 65 129
e 65 146
e 66 69
e 66 84
e 66 93
e 66 99
e 66 116
e 66 136
e 66 144
e 67 70
e 67 74
e 67 81
e 67 108
e 67 123
e 67 137
e 67 150
e 68 83
e 68 91
e 68 108
e 68 110
e 68 143
e 68 146
e 69 76
e 69 81
e 69 98
e 69 119
e 69 120
e 69 132
e 69 137
e 69 146
e 70 71
e 70 78
e 70 80
e 70 89
e 70 97
e 70 104
e 70 110
e 70 122
e 70 141
e 71 84
e 71 86
e 71 116
e 71 119
e 71 121
e 71 124
e 71 133
e 71 136
e 72 100
e 72 116
e 72 142
e 72 148
e 73 77
e 73 78
e 73 79
e 73 93
e 73 94
e 73 97
e 73 111
e 73 114
e 73 115
e 73 122
e 73 135
e 74 79
e 74 124
e 74 135
e 74 148
e 75 80
e 75 83
e 75 88
e 75 95
e 75 103
e 75 109
e 75 129
e 75 147
e 76 77
e 76 99
e 76 106
e 76 111
e 76 125
e 76 140
e 76 141
e 77 92
e 77 95
e 77 129
e 77 131
e 77 133
e 77 144
e 77 150
e 78 87
e 78 97
e 78 99
e 78 102
e 78 106
e 78 124
e 78 137
e 78 145
e 79 84
e 79 96
e 79 121
e 79 133
e 79 135
e 79 136
e 80 89
e 80 91
e 80 120
e 80 128
e 80 135
e 81 85
e 81 101
e 81 102
e 81 109
e 81 124
e 81 126
e 81 141
e 82 110
e 82 133
e 83 87
e 83 93
e 83 140
e 83 145
e 84 128
e 84 134
e 85 104
e 85 138
e 85 139
e 85 148
e 86 117
e 86 119
e 86 120
e 87 97
e 87 109
e 87 111
e 87 140
e 87 141
e 87 143
e 87 148
e 87 149
e 88 95
e 88 108
e 88 126
e 88 130
e 88 148
e 89 99
e 89 108
e 89 110
e 89 113
e 89 124
e 90 93
e 90 108
e 90 111
e 90 112
e 90 126
e 90 127
e 90 140
e 91 117
e 91 118
e 91 135
e 91 138
e 91 144
e 92 111
e 92 125
e 92 135
e 92 143
e 93 97
e 93 132
e 93 142
e 94 103
e 94 122
e 94 130
e 94 134
e 94 142
e 94 149
e 95 102
e 95 114
e 95 130
e 95 133
e 95 142
e 96 126
e 96 128
e 96 145
e 96 150
e 97 125
e 97 127
e 97 131
e 97 136
e 97 142
e 98 107
e 98 115
e 98 137
e 98 148
e 99 139
e 99 147
e 99 149
e 100 108
e 100 112
e 100 127
e 100 148
e 101 110
e 101 123
e 101 131
e 101 133
e 101 138
e 101 139
e 101 147
e 102 105
e 102 112
e 102 133
e 102 140
e 102 142
e 103 106
e 103 122
e 103 123
e 103 140
e 104 113
e 104 127
e 104 133
e 104 141
e 104 142
e 104 144
e 104 145
e 105 117
e 105 120
e 105 130
e 106 129
e 106 130
e 106 132
e 107 131
e 107 141
e 107 145
e 107 148
e 107 149
e 108 122
e 108 137
e 108 142
e 108 144
e 109 146
e 109 147
e 110 114
e 110 115
e 110 121
e 110 139
e 110 149
e 111 120
e 111 124
e 111 143
e 111 145
e 112 127
e 112 130
e 112 139
e 112 150
e 113 114
e 113 126
e 113 127
e 113 132
e 113 149
e 114 118
e 114 146
e 115 116
e 115 131
e 115 144
e 115 150
e 117 124
e 117 129
e 117 133
e 117 138
e 117 147
e 117 150
e 118 123
e 118 131
e 118 132
e 119 124
e 120 132
e 121 123
e 121 124
e 121 126
e 121 135
e 121 137
e 122 137
e 123 127
e 123 130
e 123 139
e 124 135
e 124 141
e 125 126
e 125 130
e 125 134
e 125 140
e 125 141
e 126 131
e 126 145
e 126 146
e 127 137
e 128 132
e 128 149
e 129 130
e 129 136
e 130 132
e 130 141
e 131 138
e 131 142
e 132 136
e 132 139
e 132 140
e 132 142
e 133 135
e 133 145
e 134 140
e 135 140
e 135 145
e 135 150
e 136 149
e 137 149
e 139 144
e 139 146
e 140 142
e 140 143
e 140 145
e 141 144
e 142 149
e 143 147
e 145 147
